p tdp 20 36
1 6
1 17
2 4
2 5
2 15
3 4
3 10
3 11
3 14
4 12
4 18
4 19
5 9
5 13
6 9
6 18
7 11
7 13
7 14
8 20
9 10
9 16
10 15
10 16
10 19
11 15
11 16
12 17
12 18
13 14
13 17
14 18
15 18
16 18
16 19
18 20
